DATASET = "thpack6";
INSTANCE = "033";

WIDTH = 233;
HEIGHT = 220;
LENGTH = 587;

NO_OF_SHAPES = 15;
size = [|
  40,36,21 |
  76,45,31 |
  63,54,51 |
  114,77,69 |
  95,57,53 |
  92,36,20 |
  90,84,47 |
  84,69,24 |
  57,35,35 |
  78,76,50 |
  81,67,37 |
  73,51,43 |
  64,54,30 |
  85,73,51 |
  83,58,23 |
|];

verticality = [|
  1,1,1 |
  0,1,1 |
  1,1,1 |
  1,1,1 |
  1,1,1 |
  0,1,1 |
  1,1,1 |
  0,0,1 |
  1,1,1 |
  1,1,1 |
  0,1,1 |
  1,1,1 |
  0,1,1 |
  1,1,1 |
  0,0,1 |
|];

box_count = [
  6,
  9,
  7,
  9,
  10,
  12,
  10,
  10,
  6,
  14,
  9,
  9,
  10,
  12,
  8,
];
